NAME : traveling-santa-2018-prime-paths.29971.tour
COMMENT : Length = 29971
COMMENT : Found by LKH [Keld Helsgaun] Sun Jun 12 20:00:12 2022
TYPE : TOUR
DIMENSION : 100
TOUR_SECTION
1
3
22
4
47
41
73
30
11
83
90
62
46
55
24
54
64
75
96
39
20
76
86
26
95
49
56
61
79
74
97
98
8
27
58
63
68
15
37
91
31
38
82
21
72
99
65
87
14
29
88
80
33
19
53
100
67
66
12
36
10
6
51
44
25
32
85
60
50
16
7
81
40
59
34
42
45
17
52
48
28
89
93
69
13
9
2
57
84
35
94
71
5
23
70
78
18
92
43
77
-1
EOF
